&FORCE_EVAL
  METHOD Quickstep
  &DFT
    BASIS_SET_FILE_NAME BASIS_MOLOPT
    POTENTIAL_FILE_NAME GTH_POTENTIALS 
    &MGRID
      CUTOFF 200
      REL_CUTOFF 50
      NGRIDS 5
    &END MGRID
    &SCF
      EPS_SCF 1.0E-5
      MAX_SCF 10
      SCF_GUESS RESTART 
      &OT
        PRECONDITIONER FULL_ALL
        MINIMIZER DIIS
      &END OT
      &OUTER_SCF
        EPS_SCF 1.0E-5
        MAX_SCF 10
        OPTIMIZER SD
      &END OUTER_SCF
    &END SCF
    &XC
      &XC_FUNCTIONAL BLYP 
      &END XC_FUNCTIONAL
    &END XC
    &PRINT
      &E_DENSITY_CUBE ON
      &END E_DENSITY_CUBE
    &END PRINT
     &POISSON
       PERIODIC  NONE
       POISSON_SOLVER WAVELET
     &END POISSON
  &END DFT
  &SUBSYS
    &CELL
      ABC   36.0  36.0  36.0
      PERIODIC NONE
      SYMMETRY CUBIC
    &END CELL
    &TOPOLOGY
      COORD_FILE_NAME insulin.pdb 
      COORD_FILE_FORMAT PDB
    &END TOPOLOGY
    &KIND C
      BASIS_SET DZVP-MOLOPT-GTH 
      POTENTIAL GTH-BLYP-q4
    &END KIND
    &KIND O
      BASIS_SET DZVP-MOLOPT-GTH 
      POTENTIAL GTH-BLYP-q6
    &END KIND
    &KIND H
      BASIS_SET DZVP-MOLOPT-GTH 
      POTENTIAL GTH-BLYP-q1 
    &END KIND
    &KIND S
      BASIS_SET DZVP-MOLOPT-GTH 
      POTENTIAL GTH-BLYP-q6
    &END KIND
    &KIND N
      BASIS_SET DZVP-MOLOPT-GTH 
      POTENTIAL GTH-BLYP-q5 
    &END KIND
  &END SUBSYS
&END FORCE_EVAL
&GLOBAL
  PROJECT INSULIN 
  RUN_TYPE ENERGY 
  PRINT_LEVEL LOW 
&END GLOBAL
