&FORCE_EVAL
  METHOD Quickstep
  &DFT
    BASIS_SET_FILE_NAME BASIS_SET
    POTENTIAL_FILE_NAME POTENTIAL
    LSD
    &MGRID
      CUTOFF 350
      REL_CUTOFF 50
    &END MGRID
    &SCF
      EPS_SCF 1.0E-6
      MAX_SCF 100
      SCF_GUESS RESTART 
      &OT
        PRECONDITIONER FULL_ALL
        MINIMIZER DIIS
      &END OT
    &END SCF
    &XC
      &XC_FUNCTIONAL PADE 
      &END XC_FUNCTIONAL
    &END XC
    &PRINT
      &E_DENSITY_CUBE
      &END E_DENSITY_CUBE
    &END PRINT
     &POISSON
       PERIODIC  NONE
       POISSON_SOLVER WAVELET
     &END POISSON
  &END DFT
  &SUBSYS
    &CELL
      ABC   16.  16.  16.
      PERIODIC NONE
    &END CELL
    &COORD
       Na   4.000000  8.000000  8.000000
       Cl  12.000000  8.000000  8.000000
    &END COORD
    &KIND Na
      BASIS_SET DZVP-GTH-PADE
      POTENTIAL GTH-PADE-q9
    &END KIND
    &KIND Cl
      BASIS_SET DZVP-GTH-PADE
      POTENTIAL GTH-PADE-q7
    &END KIND
  &END SUBSYS
&END FORCE_EVAL
&GLOBAL
  PROJECT salt 
  RUN_TYPE ENERGY 
  PRINT_LEVEL LOW 
&END GLOBAL
